container_length = 90;
container_width = 42;
container_height = 21;
n = 10;
boxes = [|9, 5, 2, 21
         |5, 5, 5, 30
         |4, 2, 3, 28
         |4, 3, 3, 19
         |3, 2, 3, 41
         |15,1, 2, 26
         |6, 4, 2, 23
         |4, 4, 1, 25
         |3, 3, 3, 20
         |5, 3, 4, 17|];
